This is Ipopt version 3.10.0, running with linear solver ma27.

Number of nonzeros in equality constraint Jacobian...:        2
Number of nonzeros in inequality constraint Jacobian.:        4
Number of nonzeros in Lagrangian Hessian.............:        0

Total number of variables............................:        2
                     variables with only lower bounds:        0
                variables with lower and upper bounds:        2
                     variables with only upper bounds:        0
Total number of equality constraints.................:        1
Total number of inequality constraints...............:        2
        inequality constraints with only lower bounds:        0
   inequality constraints with lower and upper bounds:        0
        inequality constraints with only upper bounds:        2

iter    objective    inf_pr   inf_du lg(mu)  ||d||  lg(rg) alpha_du alpha_pr  ls
   0  9.6099982e+04 4.66e-01 3.00e+02   0.0 0.00e+00    -  0.00e+00 0.00e+00   0
   1  9.5488177e+04 4.63e-01 4.42e+03   2.0 3.61e+02    -  4.30e-01 4.45e-03f  1
   2  1.0174615e+05 3.15e-01 1.33e+05   1.7 1.83e+02    -  8.69e-03 2.75e-01h  1
   3  1.2333771e+05 6.26e-02 2.67e+02   2.3 1.31e+02    -  1.00e+00 1.00e+00h  1
   4  1.2855187e+05 7.34e-03 3.13e+03   1.3 1.38e+01    -  9.89e-01 8.52e-01h  1
   5  1.2953560e+05 6.73e-04 1.40e+00  -0.6 1.87e+00    -  1.00e+00 1.00e+00h  1
   6  1.2941175e+05 1.13e-04 1.52e+00  -1.9 2.18e-01    -  9.95e-01 9.97e-01f  1
   7  1.2942728e+05 9.34e-06 6.11e-02  -3.8 2.62e-02    -  1.00e+00 9.98e-01h  1
   8  1.2942399e+05 1.61e-05 6.23e-06  -5.8 2.46e-03    -  1.00e+00 1.00e+00f  1

Number of Iterations....: 8

                                   (scaled)                 (unscaled)
Objective...............:   1.2942398995446610e+05    1.2942398995446610e+05
Dual infeasibility......:   6.2313379385056288e-06    6.2313379385056288e-06
Constraint violation....:   1.6136384742142526e-05    1.6136384742142526e-05
Complementarity.........:   1.4247375719134921e-06    1.4247375719134921e-06
Overall NLP error.......:   1.6136384742142526e-05    1.6136384742142526e-05


Number of objective function evaluations             = 9
Number of objective gradient evaluations             = 9
Number of equality constraint evaluations            = 9
Number of inequality constraint evaluations          = 9
Number of equality constraint Jacobian evaluations   = 9
Number of inequality constraint Jacobian evaluations = 9
Number of Lagrangian Hessian evaluations             = 0
Total CPU secs in IPOPT (w/o function evaluations)   =      0.012
Total CPU secs in NLP function evaluations           =      4.572

EXIT: Optimal Solution Found.
